c Graph colouring
c
c edges;1,10;2,10;3,10;4,10;5,10;6,10;7,10;8,10;9,10
c n = number of vertices = 10
c m = number of edges = 9
c k = number of colours = 2
c vertex i=0,...,n-1 has colour c=0,...,k-1 if variable i*k+c+1 True
c
c We have nk=20 variables and n+(k^2-k)n/2+mk=38 clauses.
c
p cnf 20 38
1 2 0
3 4 0
5 6 0
7 8 0
9 10 0
11 12 0
13 14 0
15 16 0
17 18 0
19 20 0
-16 -15 0
-10 -9 0
-6 -5 0
-4 -3 0
-12 -11 0
-20 -19 0
-8 -7 0
-14 -13 0
-18 -17 0
-2 -1 0
-20 -16 0
-19 -9 0
-20 -12 0
-20 -18 0
-20 -6 0
-19 -7 0
-19 -17 0
-19 -5 0
-20 -8 0
-20 -14 0
-19 -15 0
-20 -10 0
-19 -3 0
-20 -2 0
-19 -13 0
-19 -1 0
-20 -4 0
-19 -11 0
